25
-1453 -2487
-4163 -385
2883 1631
3 -1214
2421 1955
-3509 918
3293 -2952
-3940 -746
3648 -4386
-4562 1994
0 4215
0 -3463
-50 1668
-3048 1540
1675 -4445
0 3657
2832 4217
3531 -1339
2986 444
-1416 3436
4152 -2965
-4689 -4991
1206 -3819
-724 177
3708 3392
